p edge 800 2561
e 1 2 1
e 1 800 1
e 1 3 1
e 1 799 1
e 1 524 1
e 1 129 1
e 2 3 1
e 2 4 1
e 2 800 1
e 2 742 1
e 2 78 1
e 2 508 1
e 3 4 1
e 3 5 1
e 3 240 1
e 3 664 1
e 3 261 1
e 4 5 1
e 4 6 1
e 4 413 1
e 4 274 1
e 4 121 1
e 4 491 1
e 5 6 1
e 5 7 1
e 6 7 1
e 6 8 1
e 6 308 1
e 7 8 1
e 7 9 1
e 7 478 1
e 7 713 1
e 8 9 1
e 8 10 1
e 8 311 1
e 9 10 1
e 9 11 1
e 9 222 1
e 9 133 1
e 10 11 1
e 10 12 1
e 10 332 1
e 11 12 1
e 11 13 1
e 11 330 1
e 11 326 1
e 11 349 1
e 11 604 1
e 11 776 1
e 12 13 1
e 12 14 1
e 12 715 1
e 13 14 1
e 13 15 1
e 13 783 1
e 13 551 1
e 14 15 1
e 14 16 1
e 15 16 1
e 15 17 1
e 15 582 1
e 15 477 1
e 16 17 1
e 16 18 1
e 16 751 1
e 16 154 1
e 16 404 1
e 17 18 1
e 17 19 1
e 17 319 1
e 17 458 1
e 18 19 1
e 18 20 1
e 18 225 1
e 18 144 1
e 18 546 1
e 19 20 1
e 19 21 1
e 19 135 1
e 19 475 1
e 20 21 1
e 20 22 1
e 21 22 1
e 21 23 1
e 21 336 1
e 21 576 1
e 22 23 1
e 22 24 1
e 23 24 1
e 23 25 1
e 23 252 1
e 23 338 1
e 23 137 1
e 23 213 1
e 24 25 1
e 24 26 1
e 24 293 1
e 24 510 1
e 24 100 1
e 24 622 1
e 24 746 1
e 25 26 1
e 25 27 1
e 25 366 1
e 25 299 1
e 25 649 1
e 26 27 1
e 26 28 1
e 26 568 1
e 26 381 1
e 27 28 1
e 27 29 1
e 27 767 1
e 27 372 1
e 28 29 1
e 28 30 1
e 28 495 1
e 28 238 1
e 29 30 1
e 29 31 1
e 29 364 1
e 29 118 1
e 29 157 1
e 29 712 1
e 30 31 1
e 30 32 1
e 30 223 1
e 31 32 1
e 31 33 1
e 31 487 1
e 31 721 1
e 31 758 1
e 32 33 1
e 32 34 1
e 33 34 1
e 33 35 1
e 33 128 1
e 33 547 1
e 34 35 1
e 34 36 1
e 34 566 1
e 34 207 1
e 35 36 1
e 35 37 1
e 35 334 1
e 35 243 1
e 35 272 1
e 36 37 1
e 36 38 1
e 36 141 1
e 36 69 1
e 36 39 1
e 37 38 1
e 37 39 1
e 37 644 1
e 37 60 1
e 37 798 1
e 38 39 1
e 38 40 1
e 38 62 1
e 38 200 1
e 38 110 1
e 38 629 1
e 38 698 1
e 39 40 1
e 39 41 1
e 39 50 1
e 39 53 1
e 39 93 1
e 40 41 1
e 40 42 1
e 40 447 1
e 40 257 1
e 41 42 1
e 41 43 1
e 41 529 1
e 41 141 1
e 42 43 1
e 42 44 1
e 43 44 1
e 43 45 1
e 43 202 1
e 44 45 1
e 44 46 1
e 44 622 1
e 44 267 1
e 44 297 1
e 44 585 1
e 44 662 1
e 45 46 1
e 45 47 1
e 45 215 1
e 45 533 1
e 45 577 1
e 46 47 1
e 46 48 1
e 46 55 1
e 46 386 1
e 46 442 1
e 46 646 1
e 47 48 1
e 47 49 1
e 47 167 1
e 47 346 1
e 47 350 1
e 48 49 1
e 48 50 1
e 48 297 1
e 48 139 1
e 48 362 1
e 48 720 1
e 49 50 1
e 49 51 1
e 49 424 1
e 50 51 1
e 50 52 1
e 50 739 1
e 51 52 1
e 51 53 1
e 51 685 1
e 51 221 1
e 52 53 1
e 52 54 1
e 52 706 1
e 53 54 1
e 53 55 1
e 53 108 1
e 53 155 1
e 53 247 1
e 54 55 1
e 54 56 1
e 55 56 1
e 55 57 1
e 55 67 1
e 55 191 1
e 55 294 1
e 56 57 1
e 56 58 1
e 56 621 1
e 57 58 1
e 57 59 1
e 57 555 1
e 57 459 1
e 57 682 1
e 58 59 1
e 58 60 1
e 58 362 1
e 58 186 1
e 58 375 1
e 59 60 1
e 59 61 1
e 59 426 1
e 59 334 1
e 60 61 1
e 60 62 1
e 60 511 1
e 61 62 1
e 61 63 1
e 61 228 1
e 61 161 1
e 61 429 1
e 61 526 1
e 62 63 1
e 62 64 1
e 62 120 1
e 62 452 1
e 62 227 1
e 62 250 1
e 62 620 1
e 63 64 1
e 63 65 1
e 63 789 1
e 63 446 1
e 63 457 1
e 63 590 1
e 64 65 1
e 64 66 1
e 64 449 1
e 64 552 1
e 64 451 1
e 64 509 1
e 65 66 1
e 65 67 1
e 65 686 1
e 66 67 1
e 66 68 1
e 66 410 1
e 66 757 1
e 67 68 1
e 67 69 1
e 67 142 1
e 67 707 1
e 67 388 1
e 67 669 1
e 67 687 1
e 68 69 1
e 68 70 1
e 68 350 1
e 68 369 1
e 69 70 1
e 69 71 1
e 69 541 1
e 69 732 1
e 70 71 1
e 70 72 1
e 70 540 1
e 70 152 1
e 70 583 1
e 71 72 1
e 71 73 1
e 72 73 1
e 72 74 1
e 72 288 1
e 73 74 1
e 73 75 1
e 74 75 1
e 74 76 1
e 74 658 1
e 74 494 1
e 75 76 1
e 75 77 1
e 75 316 1
e 75 782 1
e 75 741 1
e 76 77 1
e 76 78 1
e 76 766 1
e 76 248 1
e 76 632 1
e 77 78 1
e 77 79 1
e 77 457 1
e 77 738 1
e 77 357 1
e 78 79 1
e 78 80 1
e 78 397 1
e 78 144 1
e 78 240 1
e 78 342 1
e 78 423 1
e 79 80 1
e 79 81 1
e 79 627 1
e 79 197 1
e 80 81 1
e 80 82 1
e 80 277 1
e 81 82 1
e 81 83 1
e 81 474 1
e 81 782 1
e 82 83 1
e 82 84 1
e 82 351 1
e 82 94 1
e 82 353 1
e 83 84 1
e 83 85 1
e 83 262 1
e 83 632 1
e 83 660 1
e 84 85 1
e 84 86 1
e 84 170 1
e 84 102 1
e 85 86 1
e 85 87 1
e 85 571 1
e 85 644 1
e 86 87 1
e 86 88 1
e 86 702 1
e 87 88 1
e 87 89 1
e 87 510 1
e 87 293 1
e 87 529 1
e 87 768 1
e 88 89 1
e 88 90 1
e 88 484 1
e 88 614 1
e 88 477 1
e 89 90 1
e 89 91 1
e 89 492 1
e 89 277 1
e 89 609 1
e 90 91 1
e 90 92 1
e 90 128 1
e 90 445 1
e 91 92 1
e 91 93 1
e 91 139 1
e 91 303 1
e 91 378 1
e 91 392 1
e 92 93 1
e 92 94 1
e 92 219 1
e 93 94 1
e 93 95 1
e 93 163 1
e 94 95 1
e 94 96 1
e 94 771 1
e 94 379 1
e 95 96 1
e 95 97 1
e 95 645 1
e 95 400 1
e 95 516 1
e 95 784 1
e 96 97 1
e 96 98 1
e 96 382 1
e 96 189 1
e 97 98 1
e 97 99 1
e 97 733 1
e 98 99 1
e 98 100 1
e 98 610 1
e 98 437 1
e 98 346 1
e 99 100 1
e 99 101 1
e 99 659 1
e 100 101 1
e 100 102 1
e 100 663 1
e 100 377 1
e 101 102 1
e 101 103 1
e 101 550 1
e 101 339 1
e 101 663 1
e 102 103 1
e 102 104 1
e 102 685 1
e 102 219 1
e 102 497 1
e 102 544 1
e 103 104 1
e 103 105 1
e 103 686 1
e 103 401 1
e 104 105 1
e 104 106 1
e 104 775 1
e 105 106 1
e 105 107 1
e 105 648 1
e 105 261 1
e 106 107 1
e 106 108 1
e 106 214 1
e 107 108 1
e 107 109 1
e 107 570 1
e 107 701 1
e 107 771 1
e 108 109 1
e 108 110 1
e 108 792 1
e 108 470 1
e 109 110 1
e 109 111 1
e 109 466 1
e 109 406 1
e 110 111 1
e 110 112 1
e 110 710 1
e 110 579 1
e 110 615 1
e 111 112 1
e 111 113 1
e 111 372 1
e 111 389 1
e 111 369 1
e 112 113 1
e 112 114 1
e 113 114 1
e 113 115 1
e 113 493 1
e 114 115 1
e 114 116 1
e 114 720 1
e 114 539 1
e 115 116 1
e 115 117 1
e 115 296 1
e 115 379 1
e 115 229 1
e 115 291 1
e 115 305 1
e 116 117 1
e 116 118 1
e 116 453 1
e 117 118 1
e 117 119 1
e 117 446 1
e 117 456 1
e 118 119 1
e 118 120 1
e 118 454 1
e 118 413 1
e 119 120 1
e 119 121 1
e 119 747 1
e 120 121 1
e 120 122 1
e 120 439 1
e 121 122 1
e 121 123 1
e 121 753 1
e 121 126 1
e 122 123 1
e 122 124 1
e 122 670 1
e 122 263 1
e 123 124 1
e 123 125 1
e 123 314 1
e 123 200 1
e 123 657 1
e 123 773 1
e 124 125 1
e 124 126 1
e 124 296 1
e 125 126 1
e 125 127 1
e 125 325 1
e 125 221 1
e 125 438 1
e 126 127 1
e 126 128 1
e 126 476 1
e 127 128 1
e 127 129 1
e 128 129 1
e 128 130 1
e 128 761 1
e 129 130 1
e 129 131 1
e 130 131 1
e 130 132 1
e 130 559 1
e 131 132 1
e 131 133 1
e 131 487 1
e 132 133 1
e 132 134 1
e 133 134 1
e 133 135 1
e 133 280 1
e 134 135 1
e 134 136 1
e 135 136 1
e 135 137 1
e 135 297 1
e 135 457 1
e 135 461 1
e 136 137 1
e 136 138 1
e 136 345 1
e 136 725 1
e 136 559 1
e 137 138 1
e 137 139 1
e 137 224 1
e 137 242 1
e 137 255 1
e 138 139 1
e 138 140 1
e 139 140 1
e 139 141 1
e 139 592 1
e 140 141 1
e 140 142 1
e 140 381 1
e 141 142 1
e 141 143 1
e 142 143 1
e 142 144 1
e 142 615 1
e 142 288 1
e 142 514 1
e 143 144 1
e 143 145 1
e 143 568 1
e 143 162 1
e 143 591 1
e 143 604 1
e 143 624 1
e 144 145 1
e 144 146 1
e 145 146 1
e 145 147 1
e 145 677 1
e 145 736 1
e 146 147 1
e 146 148 1
e 146 204 1
e 147 148 1
e 147 149 1
e 147 532 1
e 147 166 1
e 147 515 1
e 148 149 1
e 148 150 1
e 148 686 1
e 148 774 1
e 149 150 1
e 149 151 1
e 150 151 1
e 150 152 1
e 150 385 1
e 150 673 1
e 151 152 1
e 151 153 1
e 151 289 1
e 151 680 1
e 152 153 1
e 152 154 1
e 152 657 1
e 152 556 1
e 152 709 1
e 153 154 1
e 153 155 1
e 153 605 1
e 153 272 1
e 154 155 1
e 154 156 1
e 155 156 1
e 155 157 1
e 155 528 1
e 156 157 1
e 156 158 1
e 156 220 1
e 157 158 1
e 157 159 1
e 157 413 1
e 158 159 1
e 158 160 1
e 158 581 1
e 158 602 1
e 159 160 1
e 159 161 1
e 159 609 1
e 159 755 1
e 160 161 1
e 160 162 1
e 160 197 1
e 160 577 1
e 161 162 1
e 161 163 1
e 161 608 1
e 161 319 1
e 162 163 1
e 162 164 1
e 162 777 1
e 162 200 1
e 163 164 1
e 163 165 1
e 163 294 1
e 163 789 1
e 164 165 1
e 164 166 1
e 164 663 1
e 164 590 1
e 164 574 1
e 165 166 1
e 165 167 1
e 165 476 1
e 165 240 1
e 165 185 1
e 165 466 1
e 166 167 1
e 166 168 1
e 166 684 1
e 167 168 1
e 167 169 1
e 167 245 1
e 167 255 1
e 168 169 1
e 168 170 1
e 168 293 1
e 169 170 1
e 169 171 1
e 170 171 1
e 170 172 1
e 171 172 1
e 171 173 1
e 171 746 1
e 171 413 1
e 171 463 1
e 172 173 1
e 172 174 1
e 173 174 1
e 173 175 1
e 173 366 1
e 173 306 1
e 173 539 1
e 174 175 1
e 174 176 1
e 174 562 1
e 174 368 1
e 175 176 1
e 175 177 1
e 175 393 1
e 176 177 1
e 176 178 1
e 176 255 1
e 176 216 1
e 176 436 1
e 176 625 1
e 176 739 1
e 177 178 1
e 177 179 1
e 178 179 1
e 178 180 1
e 178 588 1
e 178 210 1
e 178 720 1
e 178 759 1
e 179 180 1
e 179 181 1
e 179 196 1
e 180 181 1
e 180 182 1
e 180 191 1
e 181 182 1
e 181 183 1
e 181 298 1
e 181 529 1
e 182 183 1
e 182 184 1
e 182 757 1
e 182 223 1
e 183 184 1
e 183 185 1
e 183 268 1
e 183 368 1
e 183 571 1
e 184 185 1
e 184 186 1
e 184 286 1
e 185 186 1
e 185 187 1
e 185 279 1
e 186 187 1
e 186 188 1
e 187 188 1
e 187 189 1
e 187 707 1
e 187 258 1
e 187 627 1
e 187 661 1
e 188 189 1
e 188 190 1
e 188 668 1
e 188 731 1
e 188 463 1
e 189 190 1
e 189 191 1
e 190 191 1
e 190 192 1
e 190 455 1
e 190 680 1
e 191 192 1
e 191 193 1
e 191 594 1
e 191 743 1
e 192 193 1
e 192 194 1
e 193 194 1
e 193 195 1
e 193 691 1
e 194 195 1
e 194 196 1
e 194 759 1
e 195 196 1
e 195 197 1
e 195 730 1
e 195 761 1
e 196 197 1
e 196 198 1
e 196 435 1
e 196 382 1
e 197 198 1
e 197 199 1
e 198 199 1
e 198 200 1
e 198 788 1
e 199 200 1
e 199 201 1
e 199 588 1
e 200 201 1
e 200 202 1
e 200 511 1
e 201 202 1
e 201 203 1
e 201 524 1
e 201 775 1
e 202 203 1
e 202 204 1
e 202 307 1
e 202 507 1
e 202 223 1
e 203 204 1
e 203 205 1
e 203 303 1
e 203 234 1
e 203 728 1
e 204 205 1
e 204 206 1
e 204 595 1
e 204 565 1
e 204 373 1
e 205 206 1
e 205 207 1
e 205 554 1
e 205 642 1
e 205 664 1
e 205 681 1
e 206 207 1
e 206 208 1
e 207 208 1
e 207 209 1
e 207 475 1
e 208 209 1
e 208 210 1
e 209 210 1
e 209 211 1
e 209 644 1
e 209 431 1
e 210 211 1
e 210 212 1
e 210 700 1
e 211 212 1
e 211 213 1
e 211 770 1
e 211 539 1
e 211 584 1
e 212 213 1
e 212 214 1
e 212 496 1
e 212 461 1
e 212 330 1
e 212 778 1
e 213 214 1
e 213 215 1
e 213 448 1
e 213 331 1
e 213 536 1
e 213 610 1
e 213 732 1
e 214 215 1
e 214 216 1
e 215 216 1
e 215 217 1
e 215 661 1
e 215 672 1
e 216 217 1
e 216 218 1
e 216 765 1
e 216 503 1
e 216 731 1
e 217 218 1
e 217 219 1
e 217 788 1
e 218 219 1
e 218 220 1
e 218 725 1
e 218 641 1
e 219 220 1
e 219 221 1
e 219 390 1
e 219 434 1
e 219 556 1
e 220 221 1
e 220 222 1
e 220 740 1
e 220 516 1
e 220 500 1
e 221 222 1
e 221 223 1
e 221 640 1
e 222 223 1
e 222 224 1
e 222 547 1
e 223 224 1
e 223 225 1
e 223 366 1
e 224 225 1
e 224 226 1
e 224 327 1
e 224 530 1
e 224 557 1
e 225 226 1
e 225 227 1
e 225 672 1
e 225 573 1
e 225 737 1
e 225 783 1
e 226 227 1
e 226 228 1
e 226 548 1
e 226 491 1
e 227 228 1
e 227 229 1
e 227 329 1
e 227 488 1
e 228 229 1
e 228 230 1
e 229 230 1
e 229 231 1
e 229 610 1
e 230 231 1
e 230 232 1
e 230 507 1
e 231 232 1
e 231 233 1
e 231 356 1
e 232 233 1
e 232 234 1
e 232 528 1
e 232 239 1
e 233 234 1
e 233 235 1
e 233 661 1
e 233 435 1
e 233 376 1
e 234 235 1
e 234 236 1
e 234 280 1
e 234 309 1
e 235 236 1
e 235 237 1
e 235 727 1
e 235 393 1
e 235 354 1
e 235 358 1
e 235 693 1
e 236 237 1
e 236 238 1
e 236 785 1
e 237 238 1
e 237 239 1
e 237 414 1
e 237 674 1
e 238 239 1
e 238 240 1
e 238 321 1
e 239 240 1
e 239 241 1
e 239 539 1
e 240 241 1
e 240 242 1
e 240 551 1
e 240 548 1
e 241 242 1
e 241 243 1
e 242 243 1
e 242 244 1
e 243 244 1
e 243 245 1
e 243 246 1
e 243 571 1
e 244 245 1
e 244 246 1
e 244 258 1
e 244 351 1
e 244 402 1
e 245 246 1
e 245 247 1
e 245 693 1
e 245 361 1
e 245 686 1
e 246 247 1
e 246 248 1
e 246 768 1
e 246 424 1
e 246 524 1
e 247 248 1
e 247 249 1
e 247 369 1
e 248 249 1
e 248 250 1
e 248 391 1
e 249 250 1
e 249 251 1
e 249 420 1
e 250 251 1
e 250 252 1
e 250 522 1
e 250 788 1
e 251 252 1
e 251 253 1
e 251 658 1
e 252 253 1
e 252 254 1
e 252 441 1
e 253 254 1
e 253 255 1
e 253 586 1
e 253 283 1
e 253 793 1
e 254 255 1
e 254 256 1
e 254 537 1
e 254 740 1
e 254 747 1
e 255 256 1
e 255 257 1
e 255 462 1
e 256 257 1
e 256 258 1
e 256 321 1
e 256 264 1
e 257 258 1
e 257 259 1
e 257 410 1
e 258 259 1
e 258 260 1
e 258 285 1
e 259 260 1
e 259 261 1
e 259 298 1
e 260 261 1
e 260 262 1
e 260 721 1
e 261 262 1
e 261 263 1
e 261 664 1
e 262 263 1
e 262 264 1
e 262 409 1
e 263 264 1
e 263 265 1
e 263 348 1
e 263 628 1
e 264 265 1
e 264 266 1
e 264 288 1
e 264 339 1
e 264 608 1
e 265 266 1
e 265 267 1
e 265 552 1
e 266 267 1
e 266 268 1
e 266 785 1
e 266 656 1
e 266 366 1
e 266 473 1
e 267 268 1
e 267 269 1
e 267 772 1
e 267 347 1
e 267 368 1
e 268 269 1
e 268 270 1
e 268 760 1
e 269 270 1
e 269 271 1
e 269 713 1
e 269 351 1
e 270 271 1
e 270 272 1
e 270 371 1
e 270 691 1
e 271 272 1
e 271 273 1
e 271 381 1
e 272 273 1
e 272 274 1
e 272 405 1
e 272 772 1
e 273 274 1
e 273 275 1
e 273 701 1
e 273 419 1
e 274 275 1
e 274 276 1
e 274 578 1
e 275 276 1
e 275 277 1
e 275 689 1
e 275 456 1
e 276 277 1
e 276 278 1
e 276 479 1
e 276 368 1
e 276 534 1
e 277 278 1
e 277 279 1
e 277 385 1
e 278 279 1
e 278 280 1
e 279 280 1
e 279 281 1
e 279 727 1
e 280 281 1
e 280 282 1
e 281 282 1
e 281 283 1
e 281 538 1
e 281 496 1
e 282 283 1
e 282 284 1
e 282 345 1
e 282 741 1
e 283 284 1
e 283 285 1
e 283 292 1
e 283 418 1
e 283 542 1
e 284 285 1
e 284 286 1
e 284 389 1
e 284 433 1
e 284 643 1
e 284 724 1
e 285 286 1
e 285 287 1
e 285 607 1
e 285 629 1
e 285 670 1
e 286 287 1
e 286 288 1
e 286 600 1
e 286 448 1
e 286 762 1
e 287 288 1
e 287 289 1
e 287 589 1
e 287 295 1
e 288 289 1
e 288 290 1
e 288 354 1
e 288 589 1
e 288 599 1
e 289 290 1
e 289 291 1
e 289 464 1
e 289 747 1
e 289 370 1
e 289 456 1
e 290 291 1
e 290 292 1
e 290 372 1
e 291 292 1
e 291 293 1
e 291 547 1
e 292 293 1
e 292 294 1
e 292 788 1
e 292 572 1
e 293 294 1
e 293 295 1
e 293 678 1
e 294 295 1
e 294 296 1
e 294 315 1
e 295 296 1
e 295 297 1
e 295 533 1
e 296 297 1
e 296 298 1
e 296 611 1
e 297 298 1
e 297 299 1
e 297 442 1
e 298 299 1
e 298 300 1
e 298 421 1
e 298 451 1
e 298 697 1
e 299 300 1
e 299 301 1
e 299 462 1
e 299 586 1
e 299 677 1
e 300 301 1
e 300 302 1
e 300 363 1
e 300 688 1
e 301 302 1
e 301 303 1
e 301 651 1
e 301 712 1
e 302 303 1
e 302 304 1
e 303 304 1
e 303 305 1
e 303 643 1
e 303 706 1
e 304 305 1
e 304 306 1
e 304 624 1
e 304 749 1
e 305 306 1
e 305 307 1
e 306 307 1
e 306 308 1
e 307 308 1
e 307 309 1
e 307 389 1
e 307 667 1
e 307 550 1
e 308 309 1
e 308 310 1
e 308 484 1
e 308 541 1
e 309 310 1
e 309 311 1
e 309 355 1
e 310 311 1
e 310 312 1
e 310 423 1
e 311 312 1
e 311 313 1
e 311 779 1
e 312 313 1
e 312 314 1
e 312 666 1
e 313 314 1
e 313 315 1
e 313 649 1
e 313 594 1
e 313 605 1
e 313 767 1
e 314 315 1
e 314 316 1
e 314 439 1
e 314 609 1
e 315 316 1
e 315 317 1
e 315 434 1
e 315 554 1
e 316 317 1
e 316 318 1
e 316 678 1
e 316 627 1
e 317 318 1
e 317 319 1
e 317 447 1
e 318 319 1
e 318 320 1
e 318 555 1
e 319 320 1
e 319 321 1
e 320 321 1
e 320 322 1
e 320 496 1
e 320 627 1
e 320 326 1
e 321 322 1
e 321 323 1
e 322 323 1
e 322 324 1
e 322 496 1
e 323 324 1
e 323 325 1
e 323 544 1
e 323 723 1
e 324 325 1
e 324 326 1
e 324 346 1
e 324 347 1
e 325 326 1
e 325 327 1
e 326 327 1
e 326 328 1
e 327 328 1
e 327 329 1
e 327 360 1
e 328 329 1
e 328 330 1
e 328 406 1
e 329 330 1
e 329 331 1
e 329 655 1
e 330 331 1
e 330 332 1
e 331 332 1
e 331 333 1
e 331 567 1
e 332 333 1
e 332 334 1
e 332 358 1
e 332 704 1
e 333 334 1
e 333 335 1
e 333 698 1
e 334 335 1
e 334 336 1
e 334 488 1
e 334 453 1
e 334 545 1
e 335 336 1
e 335 337 1
e 335 538 1
e 336 337 1
e 336 338 1
e 336 385 1
e 336 783 1
e 336 552 1
e 337 338 1
e 337 339 1
e 337 681 1
e 338 339 1
e 338 340 1
e 338 504 1
e 339 340 1
e 339 341 1
e 339 524 1
e 339 550 1
e 340 341 1
e 340 342 1
e 340 669 1
e 340 617 1
e 341 342 1
e 341 343 1
e 341 653 1
e 341 368 1
e 341 601 1
e 342 343 1
e 342 344 1
e 342 693 1
e 342 675 1
e 343 344 1
e 343 345 1
e 343 656 1
e 344 345 1
e 344 346 1
e 344 650 1
e 344 658 1
e 344 630 1
e 344 761 1
e 345 346 1
e 345 347 1
e 345 461 1
e 346 347 1
e 346 348 1
e 346 461 1
e 347 348 1
e 347 349 1
e 347 443 1
e 348 349 1
e 348 350 1
e 348 714 1
e 349 350 1
e 349 351 1
e 349 389 1
e 349 655 1
e 350 351 1
e 350 352 1
e 350 752 1
e 351 352 1
e 351 353 1
e 351 395 1
e 351 431 1
e 352 353 1
e 352 354 1
e 352 781 1
e 353 354 1
e 353 355 1
e 353 535 1
e 354 355 1
e 354 356 1
e 355 356 1
e 355 357 1
e 355 777 1
e 355 642 1
e 356 357 1
e 356 358 1
e 356 726 1
e 357 358 1
e 357 359 1
e 357 637 1
e 358 359 1
e 358 360 1
e 358 677 1
e 359 360 1
e 359 361 1
e 359 493 1
e 360 361 1
e 360 362 1
e 360 383 1
e 361 362 1
e 361 363 1
e 362 363 1
e 362 364 1
e 362 547 1
e 363 364 1
e 363 365 1
e 363 486 1
e 363 516 1
e 364 365 1
e 364 366 1
e 364 455 1
e 365 366 1
e 365 367 1
e 365 596 1
e 366 367 1
e 366 368 1
e 367 368 1
e 367 369 1
e 367 754 1
e 368 369 1
e 368 370 1
e 368 698 1
e 369 370 1
e 369 371 1
e 370 371 1
e 370 372 1
e 371 372 1
e 371 373 1
e 371 753 1
e 372 373 1
e 372 374 1
e 372 503 1
e 372 793 1
e 372 479 1
e 372 504 1
e 373 374 1
e 373 375 1
e 373 555 1
e 373 387 1
e 373 488 1
e 374 375 1
e 374 376 1
e 374 604 1
e 374 454 1
e 374 452 1
e 374 540 1
e 375 376 1
e 375 377 1
e 375 660 1
e 375 442 1
e 376 377 1
e 376 378 1
e 376 493 1
e 376 450 1
e 377 378 1
e 377 379 1
e 377 685 1
e 378 379 1
e 378 380 1
e 378 708 1
e 379 380 1
e 379 381 1
e 379 389 1
e 380 381 1
e 380 382 1
e 380 728 1
e 381 382 1
e 381 383 1
e 382 383 1
e 382 384 1
e 382 463 1
e 383 384 1
e 383 385 1
e 383 400 1
e 384 385 1
e 384 386 1
e 385 386 1
e 385 387 1
e 385 647 1
e 385 722 1
e 386 387 1
e 386 388 1
e 386 406 1
e 387 388 1
e 387 389 1
e 387 700 1
e 388 389 1
e 388 390 1
e 389 390 1
e 389 391 1
e 389 703 1
e 390 391 1
e 390 392 1
e 390 467 1
e 391 392 1
e 391 393 1
e 391 582 1
e 392 393 1
e 392 394 1
e 392 734 1
e 393 394 1
e 393 395 1
e 393 460 1
e 394 395 1
e 394 396 1
e 395 396 1
e 395 397 1
e 396 397 1
e 396 398 1
e 396 628 1
e 396 723 1
e 397 398 1
e 397 399 1
e 397 714 1
e 397 671 1
e 398 399 1
e 398 400 1
e 399 400 1
e 399 401 1
e 399 632 1
e 399 557 1
e 399 417 1
e 400 401 1
e 400 402 1
e 400 428 1
e 400 588 1
e 401 402 1
e 401 403 1
e 401 749 1
e 402 403 1
e 402 404 1
e 402 463 1
e 402 505 1
e 403 404 1
e 403 405 1
e 403 734 1
e 404 405 1
e 404 406 1
e 404 593 1
e 404 736 1
e 405 406 1
e 405 407 1
e 405 494 1
e 405 582 1
e 405 658 1
e 406 407 1
e 406 408 1
e 407 408 1
e 407 409 1
e 407 475 1
e 407 534 1
e 408 409 1
e 408 410 1
e 409 410 1
e 409 411 1
e 410 411 1
e 410 412 1
e 410 774 1
e 410 782 1
e 411 412 1
e 411 413 1
e 411 451 1
e 411 520 1
e 412 413 1
e 412 414 1
e 412 496 1
e 413 414 1
e 413 415 1
e 414 415 1
e 414 416 1
e 415 416 1
e 415 417 1
e 415 561 1
e 415 581 1
e 415 610 1
e 416 417 1
e 416 418 1
e 416 499 1
e 417 418 1
e 417 419 1
e 417 629 1
e 418 419 1
e 418 420 1
e 418 785 1
e 418 694 1
e 419 420 1
e 419 421 1
e 419 477 1
e 420 421 1
e 420 422 1
e 420 590 1
e 420 713 1
e 421 422 1
e 421 423 1
e 421 633 1
e 422 423 1
e 422 424 1
e 422 742 1
e 422 662 1
e 422 770 1
e 423 424 1
e 423 425 1
e 423 657 1
e 424 425 1
e 424 426 1
e 424 569 1
e 425 426 1
e 425 427 1
e 426 427 1
e 426 428 1
e 426 776 1
e 426 681 1
e 427 428 1
e 427 429 1
e 427 458 1
e 428 429 1
e 428 430 1
e 428 447 1
e 428 556 1
e 428 685 1
e 429 430 1
e 429 431 1
e 429 522 1
e 429 684 1
e 430 431 1
e 430 432 1
e 431 432 1
e 431 433 1
e 431 532 1
e 431 748 1
e 432 433 1
e 432 434 1
e 432 649 1
e 433 434 1
e 433 435 1
e 434 435 1
e 434 436 1
e 434 525 1
e 435 436 1
e 435 437 1
e 435 454 1
e 436 437 1
e 436 438 1
e 436 618 1
e 437 438 1
e 437 439 1
e 437 550 1
e 437 682 1
e 438 439 1
e 438 440 1
e 438 729 1
e 439 440 1
e 439 441 1
e 440 441 1
e 440 442 1
e 440 709 1
e 441 442 1
e 441 443 1
e 441 768 1
e 441 694 1
e 442 443 1
e 442 444 1
e 443 444 1
e 443 445 1
e 443 538 1
e 444 445 1
e 444 446 1
e 444 600 1
e 445 446 1
e 445 447 1
e 446 447 1
e 446 448 1
e 446 545 1
e 446 748 1
e 446 771 1
e 447 448 1
e 447 449 1
e 447 504 1
e 448 449 1
e 448 450 1
e 448 478 1
e 449 450 1
e 449 451 1
e 449 762 1
e 449 682 1
e 450 451 1
e 450 452 1
e 450 757 1
e 451 452 1
e 451 453 1
e 451 750 1
e 451 589 1
e 451 705 1
e 452 453 1
e 452 454 1
e 453 454 1
e 453 455 1
e 453 707 1
e 454 455 1
e 454 456 1
e 455 456 1
e 455 457 1
e 455 675 1
e 456 457 1
e 456 458 1
e 457 458 1
e 457 459 1
e 458 459 1
e 458 460 1
e 458 495 1
e 458 543 1
e 459 460 1
e 459 461 1
e 459 468 1
e 460 461 1
e 460 462 1
e 460 535 1
e 461 462 1
e 461 463 1
e 461 561 1
e 462 463 1
e 462 464 1
e 462 492 1
e 462 647 1
e 463 464 1
e 463 465 1
e 464 465 1
e 464 466 1
e 465 466 1
e 465 467 1
e 466 467 1
e 466 468 1
e 467 468 1
e 467 469 1
e 468 469 1
e 468 470 1
e 469 470 1
e 469 471 1
e 469 534 1
e 470 471 1
e 470 472 1
e 470 542 1
e 470 608 1
e 471 472 1
e 471 473 1
e 472 473 1
e 472 474 1
e 472 623 1
e 473 474 1
e 473 475 1
e 474 475 1
e 474 476 1
e 474 585 1
e 475 476 1
e 475 477 1
e 475 546 1
e 475 688 1
e 476 477 1
e 476 478 1
e 477 478 1
e 477 479 1
e 477 632 1
e 477 605 1
e 478 479 1
e 478 480 1
e 478 659 1
e 478 525 1
e 479 480 1
e 479 481 1
e 479 762 1
e 480 481 1
e 480 482 1
e 481 482 1
e 481 483 1
e 481 655 1
e 481 625 1
e 482 483 1
e 482 484 1
e 482 591 1
e 482 489 1
e 483 484 1
e 483 485 1
e 483 679 1
e 483 683 1
e 484 485 1
e 484 486 1
e 484 535 1
e 484 752 1
e 485 486 1
e 485 487 1
e 485 491 1
e 485 594 1
e 486 487 1
e 486 488 1
e 487 488 1
e 487 489 1
e 487 753 1
e 488 489 1
e 488 490 1
e 489 490 1
e 489 491 1
e 489 772 1
e 490 491 1
e 490 492 1
e 490 750 1
e 490 566 1
e 491 492 1
e 491 493 1
e 491 692 1
e 492 493 1
e 492 494 1
e 493 494 1
e 493 495 1
e 493 514 1
e 493 606 1
e 494 495 1
e 494 496 1
e 494 706 1
e 494 584 1
e 495 496 1
e 495 497 1
e 495 632 1
e 496 497 1
e 496 498 1
e 496 665 1
e 497 498 1
e 497 499 1
e 498 499 1
e 498 500 1
e 498 532 1
e 499 500 1
e 499 501 1
e 499 717 1
e 500 501 1
e 500 502 1
e 500 582 1
e 501 502 1
e 501 503 1
e 501 582 1
e 502 503 1
e 502 504 1
e 502 689 1
e 503 504 1
e 503 505 1
e 503 798 1
e 504 505 1
e 504 506 1
e 504 761 1
e 505 506 1
e 505 507 1
e 505 510 1
e 506 507 1
e 506 508 1
e 506 620 1
e 506 634 1
e 507 508 1
e 507 509 1
e 507 647 1
e 507 790 1
e 508 509 1
e 508 510 1
e 509 510 1
e 509 511 1
e 510 511 1
e 510 512 1
e 511 512 1
e 511 513 1
e 511 703 1
e 511 745 1
e 512 513 1
e 512 514 1
e 513 514 1
e 513 515 1
e 514 515 1
e 514 516 1
e 514 558 1
e 515 516 1
e 515 517 1
e 515 676 1
e 515 594 1
e 516 517 1
e 516 518 1
e 516 685 1
e 517 518 1
e 517 519 1
e 517 573 1
e 517 674 1
e 517 531 1
e 517 701 1
e 518 519 1
e 518 520 1
e 518 770 1
e 519 520 1
e 519 521 1
e 519 629 1
e 519 668 1
e 520 521 1
e 520 522 1
e 520 600 1
e 520 654 1
e 520 756 1
e 521 522 1
e 521 523 1
e 521 781 1
e 522 523 1
e 522 524 1
e 522 689 1
e 522 707 1
e 522 780 1
e 523 524 1
e 523 525 1
e 523 671 1
e 524 525 1
e 524 526 1
e 524 568 1
e 525 526 1
e 525 527 1
e 526 527 1
e 526 528 1
e 526 662 1
e 526 764 1
e 527 528 1
e 527 529 1
e 527 570 1
e 528 529 1
e 528 530 1
e 528 659 1
e 529 530 1
e 529 531 1
e 530 531 1
e 530 532 1
e 530 674 1
e 531 532 1
e 531 533 1
e 531 659 1
e 531 797 1
e 532 533 1
e 532 534 1
e 532 565 1
e 533 534 1
e 533 535 1
e 534 535 1
e 534 536 1
e 535 536 1
e 535 537 1
e 535 671 1
e 536 537 1
e 536 538 1
e 537 538 1
e 537 539 1
e 537 675 1
e 538 539 1
e 538 540 1
e 539 540 1
e 539 541 1
e 540 541 1
e 540 542 1
e 541 542 1
e 541 543 1
e 542 543 1
e 542 544 1
e 542 626 1
e 542 742 1
e 543 544 1
e 543 545 1
e 543 770 1
e 544 545 1
e 544 546 1
e 544 693 1
e 545 546 1
e 545 547 1
e 546 547 1
e 546 548 1
e 547 548 1
e 547 549 1
e 548 549 1
e 548 550 1
e 549 550 1
e 549 551 1
e 549 553 1
e 550 551 1
e 550 552 1
e 551 552 1
e 551 553 1
e 551 732 1
e 551 787 1
e 552 553 1
e 552 554 1
e 552 677 1
e 553 554 1
e 553 555 1
e 553 660 1
e 554 555 1
e 554 556 1
e 554 706 1
e 554 791 1
e 555 556 1
e 555 557 1
e 555 766 1
e 556 557 1
e 556 558 1
e 556 695 1
e 557 558 1
e 557 559 1
e 558 559 1
e 558 560 1
e 558 777 1
e 559 560 1
e 559 561 1
e 559 760 1
e 560 561 1
e 560 562 1
e 561 562 1
e 561 563 1
e 562 563 1
e 562 564 1
e 562 658 1
e 562 773 1
e 563 564 1
e 563 565 1
e 564 565 1
e 564 566 1
e 564 706 1
e 565 566 1
e 565 567 1
e 565 712 1
e 566 567 1
e 566 568 1
e 567 568 1
e 567 569 1
e 567 587 1
e 567 681 1
e 568 569 1
e 568 570 1
e 568 671 1
e 568 635 1
e 569 570 1
e 569 571 1
e 569 730 1
e 569 665 1
e 569 753 1
e 570 571 1
e 570 572 1
e 571 572 1
e 571 573 1
e 572 573 1
e 572 574 1
e 573 574 1
e 573 575 1
e 574 575 1
e 574 576 1
e 575 576 1
e 575 577 1
e 575 578 1
e 575 630 1
e 576 577 1
e 576 578 1
e 577 578 1
e 577 579 1
e 578 579 1
e 578 580 1
e 579 580 1
e 579 581 1
e 579 701 1
e 580 581 1
e 580 582 1
e 580 718 1
e 580 658 1
e 581 582 1
e 581 583 1
e 582 583 1
e 582 584 1
e 582 793 1
e 583 584 1
e 583 585 1
e 584 585 1
e 584 586 1
e 585 586 1
e 585 587 1
e 586 587 1
e 586 588 1
e 587 588 1
e 587 589 1
e 588 589 1
e 588 590 1
e 588 672 1
e 589 590 1
e 589 591 1
e 590 591 1
e 590 592 1
e 591 592 1
e 591 593 1
e 592 593 1
e 592 594 1
e 593 594 1
e 593 595 1
e 594 595 1
e 594 596 1
e 595 596 1
e 595 597 1
e 595 716 1
e 595 653 1
e 596 597 1
e 596 598 1
e 596 724 1
e 597 598 1
e 597 599 1
e 597 689 1
e 598 599 1
e 598 600 1
e 599 600 1
e 599 601 1
e 599 706 1
e 600 601 1
e 600 602 1
e 600 759 1
e 601 602 1
e 601 603 1
e 601 658 1
e 602 603 1
e 602 604 1
e 603 604 1
e 603 605 1
e 603 712 1
e 603 612 1
e 603 794 1
e 604 605 1
e 604 606 1
e 605 606 1
e 605 607 1
e 606 607 1
e 606 608 1
e 607 608 1
e 607 609 1
e 608 609 1
e 608 610 1
e 609 610 1
e 609 611 1
e 610 611 1
e 610 612 1
e 611 612 1
e 611 613 1
e 611 649 1
e 612 613 1
e 612 614 1
e 613 614 1
e 613 615 1
e 614 615 1
e 614 616 1
e 615 616 1
e 615 617 1
e 616 617 1
e 616 618 1
e 617 618 1
e 617 619 1
e 618 619 1
e 618 620 1
e 618 625 1
e 618 686 1
e 619 620 1
e 619 621 1
e 620 621 1
e 620 622 1
e 621 622 1
e 621 623 1
e 622 623 1
e 622 624 1
e 623 624 1
e 623 625 1
e 623 657 1
e 624 625 1
e 624 626 1
e 625 626 1
e 625 627 1
e 626 627 1
e 626 628 1
e 627 628 1
e 627 629 1
e 628 629 1
e 628 630 1
e 629 630 1
e 629 631 1
e 630 631 1
e 630 632 1
e 631 632 1
e 631 633 1
e 631 723 1
e 631 690 1
e 632 633 1
e 632 634 1
e 633 634 1
e 633 635 1
e 634 635 1
e 634 636 1
e 635 636 1
e 635 637 1
e 636 637 1
e 636 638 1
e 636 686 1
e 636 738 1
e 637 638 1
e 637 639 1
e 638 639 1
e 638 640 1
e 639 640 1
e 639 641 1
e 639 702 1
e 640 641 1
e 640 642 1
e 641 642 1
e 641 643 1
e 642 643 1
e 642 644 1
e 642 770 1
e 643 644 1
e 643 645 1
e 643 666 1
e 643 696 1
e 644 645 1
e 644 646 1
e 644 742 1
e 645 646 1
e 645 647 1
e 645 656 1
e 645 757 1
e 646 647 1
e 646 648 1
e 647 648 1
e 647 649 1
e 648 649 1
e 648 650 1
e 648 752 1
e 649 650 1
e 649 651 1
e 650 651 1
e 650 652 1
e 650 785 1
e 651 652 1
e 651 653 1
e 651 718 1
e 652 653 1
e 652 654 1
e 653 654 1
e 653 655 1
e 653 659 1
e 654 655 1
e 654 656 1
e 655 656 1
e 655 657 1
e 655 781 1
e 656 657 1
e 656 658 1
e 656 714 1
e 657 658 1
e 657 659 1
e 658 659 1
e 658 660 1
e 659 660 1
e 659 661 1
e 660 661 1
e 660 662 1
e 661 662 1
e 661 663 1
e 661 735 1
e 662 663 1
e 662 664 1
e 663 664 1
e 663 665 1
e 663 709 1
e 664 665 1
e 664 666 1
e 665 666 1
e 665 667 1
e 666 667 1
e 666 668 1
e 666 681 1
e 666 769 1
e 667 668 1
e 667 669 1
e 667 722 1
e 667 747 1
e 668 669 1
e 668 670 1
e 668 736 1
e 669 670 1
e 669 671 1
e 669 781 1
e 670 671 1
e 670 672 1
e 671 672 1
e 671 673 1
e 672 673 1
e 672 674 1
e 672 731 1
e 672 796 1
e 673 674 1
e 673 675 1
e 674 675 1
e 674 676 1
e 674 720 1
e 675 676 1
e 675 677 1
e 676 677 1
e 676 678 1
e 676 796 1
e 676 750 1
e 677 678 1
e 677 679 1
e 677 754 1
e 678 679 1
e 678 680 1
e 678 725 1
e 679 680 1
e 679 681 1
e 680 681 1
e 680 682 1
e 681 682 1
e 681 683 1
e 682 683 1
e 682 684 1
e 683 684 1
e 683 685 1
e 683 698 1
e 684 685 1
e 684 686 1
e 685 686 1
e 685 687 1
e 686 687 1
e 686 688 1
e 687 688 1
e 687 689 1
e 687 714 1
e 688 689 1
e 688 690 1
e 689 690 1
e 689 691 1
e 689 715 1
e 690 691 1
e 690 692 1
e 690 798 1
e 691 692 1
e 691 693 1
e 692 693 1
e 692 694 1
e 693 694 1
e 693 695 1
e 694 695 1
e 694 696 1
e 695 696 1
e 695 697 1
e 696 697 1
e 696 698 1
e 697 698 1
e 697 699 1
e 697 705 1
e 698 699 1
e 698 700 1
e 699 700 1
e 699 701 1
e 699 742 1
e 699 738 1
e 700 701 1
e 700 702 1
e 700 776 1
e 701 702 1
e 701 703 1
e 702 703 1
e 702 704 1
e 702 713 1
e 703 704 1
e 703 705 1
e 704 705 1
e 704 706 1
e 705 706 1
e 705 707 1
e 706 707 1
e 706 708 1
e 707 708 1
e 707 709 1
e 708 709 1
e 708 710 1
e 709 710 1
e 709 711 1
e 710 711 1
e 710 712 1
e 711 712 1
e 711 713 1
e 712 713 1
e 712 714 1
e 713 714 1
e 713 715 1
e 714 715 1
e 714 716 1
e 715 716 1
e 715 717 1
e 716 717 1
e 716 718 1
e 716 721 1
e 717 718 1
e 717 719 1
e 718 719 1
e 718 720 1
e 719 720 1
e 719 721 1
e 720 721 1
e 720 722 1
e 721 722 1
e 721 723 1
e 722 723 1
e 722 724 1
e 723 724 1
e 723 725 1
e 724 725 1
e 724 726 1
e 725 726 1
e 725 727 1
e 726 727 1
e 726 728 1
e 727 728 1
e 727 729 1
e 728 729 1
e 728 730 1
e 729 730 1
e 729 731 1
e 730 731 1
e 730 732 1
e 731 732 1
e 731 733 1
e 732 733 1
e 732 734 1
e 733 734 1
e 733 735 1
e 734 735 1
e 734 736 1
e 735 736 1
e 735 737 1
e 735 777 1
e 736 737 1
e 736 738 1
e 737 738 1
e 737 739 1
e 738 739 1
e 738 740 1
e 739 740 1
e 739 741 1
e 739 785 1
e 740 741 1
e 740 742 1
e 741 742 1
e 741 743 1
e 742 743 1
e 742 744 1
e 743 744 1
e 743 745 1
e 744 745 1
e 744 746 1
e 745 746 1
e 745 747 1
e 746 747 1
e 746 748 1
e 747 748 1
e 747 749 1
e 748 749 1
e 748 750 1
e 749 750 1
e 749 751 1
e 750 751 1
e 750 752 1
e 751 752 1
e 751 753 1
e 752 753 1
e 752 754 1
e 753 754 1
e 753 755 1
e 753 786 1
e 754 755 1
e 754 756 1
e 755 756 1
e 755 757 1
e 756 757 1
e 756 758 1
e 757 758 1
e 757 759 1
e 758 759 1
e 758 760 1
e 759 760 1
e 759 761 1
e 760 761 1
e 760 762 1
e 761 762 1
e 761 763 1
e 762 763 1
e 762 764 1
e 763 764 1
e 763 765 1
e 764 765 1
e 764 766 1
e 765 766 1
e 765 767 1
e 766 767 1
e 766 768 1
e 767 768 1
e 767 769 1
e 768 769 1
e 768 770 1
e 769 770 1
e 769 771 1
e 770 771 1
e 770 772 1
e 771 772 1
e 771 773 1
e 772 773 1
e 772 774 1
e 773 774 1
e 773 775 1
e 774 775 1
e 774 776 1
e 775 776 1
e 775 777 1
e 776 777 1
e 776 778 1
e 777 778 1
e 777 779 1
e 778 779 1
e 778 780 1
e 779 780 1
e 779 781 1
e 780 781 1
e 780 782 1
e 781 782 1
e 781 783 1
e 782 783 1
e 782 784 1
e 783 784 1
e 783 785 1
e 784 785 1
e 784 786 1
e 785 786 1
e 785 787 1
e 786 787 1
e 786 788 1
e 787 788 1
e 787 789 1
e 788 789 1
e 788 790 1
e 789 790 1
e 789 791 1
e 790 791 1
e 790 792 1
e 791 792 1
e 791 793 1
e 792 793 1
e 792 794 1
e 793 794 1
e 793 795 1
e 794 795 1
e 794 796 1
e 795 796 1
e 795 797 1
e 796 797 1
e 796 798 1
e 797 798 1
e 797 799 1
e 798 799 1
e 798 800 1
e 799 800 1